NAME: ../File/prFile/tspFile/tsp_file46.tsp
COMMENT: TSP file generated by Python
TYPE: TSP
DIMENSION: 30
EDGE_WEIGHT_TYPE: EUC_2D
NODE_COORD_SECTION
1 74 14
2 48 54
3 69 30
4 20 29
5 55 47
6 27 26
7 25 95
8 98 25
9 17 61
10 13 4
11 19 23
12 49 48
13 51 51
14 29 99
15 49 84
16 70 27
17 41 70
18 55 64
19 91 32
20 9 22
21 36 70
22 51 74
23 24 39
24 3 11
25 89 84
26 23 37
27 86 54
28 45 90
29 7 32
30 40 37
EOF
